\ENCODING=ISO-8859-1
\Problem name: ilog.cplex

Minimize
 obj1: 108637 x1 + 107904 x2 + 90014 x3 + 94429 x4 + 90674 x5 + 98450 x6
       + 104860 x7 + 96628 x8 + 108437 x9 + 108797 x10 + 90484 x11 + 95185 x12
       + 100857 x13 + 97728 x14 + 92764 x15 + 106816 x16 + 99663 x17
       + 97742 x18 + 104628 x19 + 107504 x20 + 109644 x21 + 91561 x22
       + 109260 x23 + 108241 x24 + 105236 x25 + 105387 x26 + 109024 x27
       + 96807 x28 + 90281 x29 + 95442 x30 + 90677 x31 + 93693 x32 + 91629 x33
       + 90097 x34 + 96504 x35 + 103860 x36 + 96625 x37 + 96324 x38 + 95730 x39
       + 90268 x40 + 99533 x41 + 106279 x42 + 100897 x43 + 109986 x44
       + 92622 x45 + 107469 x46 + 109846 x47 + 99165 x48 + 103882 x49
       + 108275 x50 + 99533 x51 + 92988 x52 + 103778 x53 + 92688 x54
       + 102406 x55 + 106086 x56 + 101652 x57 + 92820 x58 + 102974 x59
       + 94148 x60 + 102405 x61 + 99137 x62 + 104763 x63 + 103879 x64
       + 105541 x65 + 105775 x66 + 101857 x67 + 100728 x68 + 106906 x69
       + 106400 x70 + 107298 x71 + 109641 x72 + 94098 x73 + 101630 x74
       + 104135 x75 + 96004 x76 + 93637 x77 + 109617 x78 + 99811 x79
       + 104131 x80 + 103702 x81 + 101317 x82 + 98480 x83 + 102892 x84
       + 97992 x85 + 104502 x86 + 100403 x87 + 105913 x88 + 108609 x89
       + 98697 x90 + 92755 x91 + 97191 x92 + 108874 x93 + 97020 x94 + 91973 x95
       + 102115 x96 + 100579 x97 + 100260 x98 + 94185 x99 + 98533 x100
       + 102867 x101 + 97300 x102 + 96955 x103 + 96326 x104 + 92234 x105
       + 95376 x106 + 96310 x107 + 90591 x108 + 95106 x109 + 108441 x110
       + 95106 x111 + 102896 x112 + 100241 x113 + 107227 x114 + 92513 x115
       + 107141 x116 + 96473 x117 + 93159 x118 + 98356 x119 + 103549 x120
       + 104386 x121 + 97796 x122 + 93345 x123 + 100245 x124 + 94980 x125
       + 107895 x126 + 97612 x127 + 101675 x128 + 90157 x129 + 91243 x130
       + 100591 x131 + 96377 x132 + 105172 x133 + 108283 x134 + 90924 x135
       + 99302 x136 + 104169 x137 + 95042 x138 + 106324 x139 + 107151 x140
       + 96474 x141 + 93988 x142 + 100261 x143 + 109169 x144 + 103563 x145
       + 91164 x146 + 94803 x147 + 100328 x148 + 94426 x149 + 90331 x150
       + 97831 x151 + 101067 x152 + 97504 x153 + 100522 x154 + 105495 x155
       + 94059 x156 + 98508 x157 + 90051 x158 + 103150 x159 + 105688 x160
       + 101033 x161 + 101339 x162 + 107168 x163 + 103664 x164 + 102809 x165
       + 94446 x166 + 96957 x167 + 90122 x168 + 97789 x169 + 102669 x170
       + 107429 x171 + 92660 x172 + 94666 x173 + 102265 x174 + 92210 x175
       + 102130 x176 + 92328 x177 + 109361 x178 + 109722 x179 + 102355 x180
       + 108303 x181 + 105403 x182 + 92250 x183 + 105701 x184 + 107034 x185
       + 96561 x186 + 96738 x187 + 92825 x188 + 106262 x189 + 102228 x190
       + 105260 x191 + 94952 x192 + 91829 x193 + 103071 x194 + 103033 x195
       + 92658 x196 + 103921 x197 + 100068 x198 + 92250 x199 + 96440 x200
       + 101202 x201 + 101820 x202 + 95241 x203 + 99899 x204 + 109348 x205
       + 99865 x206 + 93033 x207 + 95516 x208 + 95297 x209 + 100865 x210
       + 93823 x211 + 94576 x212 + 97996 x213 + 108441 x214 + 91173 x215
       + 101604 x216 + 97435 x217 + 100489 x218 + 101367 x219 + 98878 x220
       + 96135 x221 + 95372 x222 + 100734 x223 + 96422 x224 + 107293 x225
       + 104862 x226 + 94768 x227 + 97000 x228 + 107463 x229 + 99027 x230
       + 92215 x231 + 106923 x232 + 103607 x233 + 107204 x234 + 94486 x235
       + 100280 x236 + 91838 x237 + 98731 x238 + 93601 x239 + 91503 x240
       + 108326 x241 + 107304 x242 + 100317 x243 + 109229 x244 + 91619 x245
       + 103604 x246 + 98179 x247 + 92969 x248 + 90008 x249 + 102306 x250
       + 91567 x251 + 100092 x252 + 106876 x253 + 108411 x254 + 95845 x255
       + 96374 x256 + 95381 x257 + 99003 x258 + 106126 x259 + 93332 x260
       + 94043 x261 + 107224 x262 + 95617 x263 + 93712 x264 + 90315 x265
       + 106932 x266 + 103494 x267 + 94870 x268 + 91099 x269 + 106907 x270
       + 94451 x271 + 109083 x272 + 97173 x273 + 105821 x274 + 107638 x275
       + 97636 x276 + 97870 x277 + 94567 x278 + 94967 x279 + 94288 x280
       + 103198 x281 + 92258 x282 + 95821 x283 + 104048 x284 + 105442 x285
       + 92858 x286 + 102901 x287 + 99167 x288 + 107806 x289 + 105673 x290
       + 102218 x291 + 95786 x292 + 93728 x293 + 94823 x294 + 99168 x295
       + 101958 x296 + 97275 x297 + 100336 x298 + 92202 x299 + 100524 x300
       + 108830 x301 + 106558 x302 + 93119 x303 + 104847 x304 + 101324 x305
       + 103774 x306 + 105333 x307 + 105453 x308 + 90802 x309 + 109538 x310
       + 106470 x311 + 106251 x312 + 99380 x313 + 92199 x314 + 103040 x315
       + 100712 x316 + 91250 x317 + 104074 x318 + 91063 x319 + 101250 x320
       + 105837 x321 + 107576 x322 + 95401 x323 + 101355 x324 + 102206 x325
       + 103131 x326 + 97562 x327 + 96095 x328 + 103369 x329 + 98028 x330
       + 95406 x331 + 96569 x332 + 92643 x333 + 108366 x334 + 91970 x335
       + 109681 x336 + 103231 x337 + 109850 x338 + 100028 x339 + 91050 x340
       + 96970 x341 + 107452 x342 + 93997 x343 + 95895 x344 + 108479 x345
       + 98777 x346 + 101469 x347 + 90441 x348 + 96909 x349 + 101511 x350
       + 101395 x351 + 99981 x352 + 106146 x353 + 94991 x354 + 93951 x355
       + 100347 x356 + 94308 x357 + 99569 x358 + 100499 x359 + 90236 x360
       + 94577 x361 + 102849 x362 + 97054 x363 + 104447 x364 + 92696 x365
       + 95046 x366 + 103238 x367 + 98177 x368 + 90931 x369 + 92523 x370
       + 97639 x371 + 94913 x372 + 109912 x373 + 106090 x374 + 95873 x375
       + 90314 x376 + 102568 x377 + 103974 x378 + 108117 x379 + 93300 x380
       + 109872 x381 + 98413 x382 + 103975 x383 + 102413 x384 + 92066 x385
       + 107019 x386 + 94292 x387 + 108084 x388 + 93577 x389 + 107883 x390
       + 91893 x391 + 99542 x392 + 105029 x393 + 100876 x394 + 96202 x395
       + 98914 x396 + 91509 x397 + 106645 x398 + 100319 x399 + 104407 x400
       + 99534 x401 + 107794 x402 + 101049 x403 + 105774 x404 + 95955 x405
       + 104718 x406 + 96188 x407 + 90711 x408 + 103796 x409 + 103686 x410
       + 97062 x411 + 90853 x412 + 105177 x413 + 91272 x414 + 104775 x415
       + 106597 x416 + 104243 x417 + 92952 x418 + 93905 x419 + 99048 x420
       + 100076 x421 + 101123 x422 + 102118 x423 + 109153 x424 + 97703 x425
       + 106754 x426 + 91581 x427 + 92981 x428 + 96748 x429 + 104172 x430
       + 98574 x431 + 92347 x432 + 97344 x433 + 90574 x434 + 103018 x435
       + 99875 x436 + 98532 x437 + 94495 x438 + 90564 x439 + 108072 x440
       + 95657 x441 + 100796 x442 + 106533 x443 + 93088 x444 + 90180 x445
       + 93644 x446 + 93140 x447 + 95591 x448 + 107803 x449 + 93499 x450
       + 99329 x451 + 95800 x452 + 94660 x453 + 109788 x454 + 103041 x455
       + 97567 x456 + 99895 x457 + 99934 x458 + 99557 x459 + 109737 x460
       + 103663 x461 + 90921 x462 + 93027 x463 + 94229 x464 + 101199 x465
       + 106493 x466 + 97313 x467 + 99751 x468 + 109088 x469 + 104997 x470
       + 107224 x471 + 109620 x472 + 91027 x473 + 94558 x474 + 95858 x475
       + 99005 x476 + 97670 x477 + 109671 x478 + 93006 x479 + 96060 x480
       + 106732 x481 + 90943 x482 + 99715 x483 + 109838 x484 + 107530 x485
       + 108463 x486 + 94912 x487 + 101973 x488 + 102777 x489 + 103705 x490
       + 91441 x491 + 98843 x492 + 99631 x493 + 94860 x494 + 100883 x495
       + 106220 x496 + 91918 x497 + 96150 x498 + 109232 x499 + 237483 x500
       + 38041 x501 + 42305 x502 + 38944 x503 + 41694 x504 + 39329 x505
       + 36215 x506 + 43781 x507 + 36860 x508 + 43788 x509 + 43316 x510
       + 42882 x511 + 41494 x512 + 37113 x513 + 39217 x514 + 38975 x515
       + 40466 x516 + 36795 x517 + 38173 x518 + 36833 x519 + 36910 x520
       + 39084 x521 + 43163 x522 + 39783 x523 + 38734 x524 + 37836 x525
       + 38200 x526 + 37174 x527 + 37490 x528 + 41224 x529 + 40329 x530
       + 36320 x531 + 40527 x532 + 43543 x533 + 42352 x534 + 41003 x535
       + 37301 x536 + 41249 x537 + 41734 x538 + 39932 x539 + 43535 x540
       + 39074 x541 + 42262 x542 + 38648 x543 + 40386 x544 + 37528 x545
       + 36911 x546 + 43156 x547 + 38053 x548 + 43248 x549 + 47090 x550
Subject To
 c1:   - x3 - x23 - x25 - x35 - x41 + x44  = 0
 c2:   - x53 - x73 - x75 - x85 - x91 + x94  = 0
 c3:   - x103 - x123 - x125 - x135 - x141 + x144  = 0
 c4:   - x153 - x173 - x175 - x185 - x191 + x194  = 0
 c5:   - x203 - x223 - x225 - x235 - x241 + x244  = 0
 c6:   - x253 - x273 - x275 - x285 - x291 + x294  = 0
 c7:   - x303 - x323 - x325 - x335 - x341 + x344  = 0
 c8:   - x353 - x373 - x375 - x385 - x391 + x394  = 0
 c9:   - x403 - x423 - x425 - x435 - x441 + x444  = 0
 c10:  - x453 - x473 - x475 - x485 - x491 + x494  = 0
 c11:  - x9 + x11 + x21 + x23 - x28 + x30 + x31 - x34 - x40 - x43  = 1
 c12:  - x59 + x61 + x71 + x73 - x78 + x80 + x81 - x84 - x90 - x93  = 0
 c13:  - x109 + x111 + x121 + x123 - x128 + x130 + x131 - x134 - x140 - x143
        = 0
 c14:  - x159 + x161 + x171 + x173 - x178 + x180 + x181 - x184 - x190 - x193
        = 0
 c15:  - x209 + x211 + x221 + x223 - x228 + x230 + x231 - x234 - x240 - x243
        = 0
 c16:  - x259 + x261 + x271 + x273 - x278 + x280 + x281 - x284 - x290 - x293
        = 0
 c17:  - x309 + x311 + x321 + x323 - x328 + x330 + x331 - x334 - x340 - x343
        = 0
 c18:  - x359 + x361 + x371 + x373 - x378 + x380 + x381 - x384 - x390 - x393
        = 0
 c19:  - x409 + x411 + x421 + x423 - x428 + x430 + x431 - x434 - x440 - x443
        = 0
 c20:  - x459 + x461 + x471 + x473 - x478 + x480 + x481 - x484 - x490 - x493
        = 0
 c21:  - x8 - x12 + x22 + x32 + x41 + x47  = 0
 c22:  - x58 - x62 + x72 + x82 + x91 + x97  = 0
 c23:  - x108 - x112 + x122 + x132 + x141 + x147  = 1
 c24:  - x158 - x162 + x172 + x182 + x191 + x197  = 0
 c25:  - x208 - x212 + x222 + x232 + x241 + x247  = 0
 c26:  - x258 - x262 + x272 + x282 + x291 + x297  = 1
 c27:  - x308 - x312 + x322 + x332 + x341 + x347  = 0
 c28:  - x358 - x362 + x372 + x382 + x391 + x397  = 0
 c29:  - x408 - x412 + x422 + x432 + x441 + x447  = 0
 c30:  - x458 - x462 + x472 + x482 + x491 + x497  = 0
 c31:  x10 + x12 - x17 - x33 + x37 - x39 - x47  = 0
 c32:  x60 + x62 - x67 - x83 + x87 - x89 - x97  = 0
 c33:  x110 + x112 - x117 - x133 + x137 - x139 - x147  = 0
 c34:  x160 + x162 - x167 - x183 + x187 - x189 - x197  = 0
 c35:  x210 + x212 - x217 - x233 + x237 - x239 - x247  = 0
 c36:  x260 + x262 - x267 - x283 + x287 - x289 - x297  = 0
 c37:  x310 + x312 - x317 - x333 + x337 - x339 - x347  = 0
 c38:  x360 + x362 - x367 - x383 + x387 - x389 - x397  = 0
 c39:  x410 + x412 - x417 - x433 + x437 - x439 - x447  = 0
 c40:  x460 + x462 - x467 - x483 + x487 - x489 - x497  = 0
 c41:  x6 + x16 + x17 - x21 + x26 - x32 + x49  = -1
 c42:  x56 + x66 + x67 - x71 + x76 - x82 + x99  = 0
 c43:  x106 + x116 + x117 - x121 + x126 - x132 + x149  = 0
 c44:  x156 + x166 + x167 - x171 + x176 - x182 + x199  = 0
 c45:  x206 + x216 + x217 - x221 + x226 - x232 + x249  = 0
 c46:  x256 + x266 + x267 - x271 + x276 - x282 + x299  = 0
 c47:  x306 + x316 + x317 - x321 + x326 - x332 + x349  = 1
 c48:  x356 + x366 + x367 - x371 + x376 - x382 + x399  = 0
 c49:  x406 + x416 + x417 - x421 + x426 - x432 + x449  = 0
 c50:  x456 + x466 + x467 - x471 + x476 - x482 + x499  = 0
 c51:  - x2 + x14 + x15 + x18 - x20 + x33 + x35 - x36  = 0
 c52:  - x52 + x64 + x65 + x68 - x70 + x83 + x85 - x86  = 0
 c53:  - x102 + x114 + x115 + x118 - x120 + x133 + x135 - x136  = 0
 c54:  - x152 + x164 + x165 + x168 - x170 + x183 + x185 - x186  = 0
 c55:  - x202 + x214 + x215 + x218 - x220 + x233 + x235 - x236  = 0
 c56:  - x252 + x264 + x265 + x268 - x270 + x283 + x285 - x286  = -1
 c57:  - x302 + x314 + x315 + x318 - x320 + x333 + x335 - x336  = 0
 c58:  - x352 + x364 + x365 + x368 - x370 + x383 + x385 - x386  = 0
 c59:  - x402 + x414 + x415 + x418 - x420 + x433 + x435 - x436  = 0
 c60:  - x452 + x464 + x465 + x468 - x470 + x483 + x485 - x486  = 0
 c61:  x8 - x15 - x19 - x22 + x28 - x50  = 0
 c62:  x58 - x65 - x69 - x72 + x78 - x100  = 0
 c63:  x108 - x115 - x119 - x122 + x128 - x150  = 0
 c64:  x158 - x165 - x169 - x172 + x178 - x200  = 0
 c65:  x208 - x215 - x219 - x222 + x228 - x250  = 0
 c66:  x258 - x265 - x269 - x272 + x278 - x300  = 0
 c67:  x308 - x315 - x319 - x322 + x328 - x350  = 0
 c68:  x358 - x365 - x369 - x372 + x378 - x400  = -1
 c69:  x408 - x415 - x419 - x422 + x428 - x450  = 0
 c70:  x458 - x465 - x469 - x472 + x478 - x500  = -1
 c71:  x1 - x4 - x18 - x31 + x38 - x45  = 0
 c72:  x51 - x54 - x68 - x81 + x88 - x95  = 0
 c73:  x101 - x104 - x118 - x131 + x138 - x145  = 0
 c74:  x151 - x154 - x168 - x181 + x188 - x195  = -1
 c75:  x201 - x204 - x218 - x231 + x238 - x245  = 0
 c76:  x251 - x254 - x268 - x281 + x288 - x295  = 0
 c77:  x301 - x304 - x318 - x331 + x338 - x345  = 0
 c78:  x351 - x354 - x368 - x381 + x388 - x395  = 0
 c79:  x401 - x404 - x418 - x431 + x438 - x445  = 1
 c80:  x451 - x454 - x468 - x481 + x488 - x495  = 0
 c81:  x2 + x5 - x13 + x25 - x30 - x38 + x39 + x45 + x50  = 0
 c82:  x52 + x55 - x63 + x75 - x80 - x88 + x89 + x95 + x100  = 0
 c83:  x102 + x105 - x113 + x125 - x130 - x138 + x139 + x145 + x150  = 0
 c84:  x152 + x155 - x163 + x175 - x180 - x188 + x189 + x195 + x200  = 0
 c85:  x202 + x205 - x213 + x225 - x230 - x238 + x239 + x245 + x250  = -1
 c86:  x252 + x255 - x263 + x275 - x280 - x288 + x289 + x295 + x300  = 0
 c87:  x302 + x305 - x313 + x325 - x330 - x338 + x339 + x345 + x350  = 0
 c88:  x352 + x355 - x363 + x375 - x380 - x388 + x389 + x395 + x400  = 0
 c89:  x402 + x405 - x413 + x425 - x430 - x438 + x439 + x445 + x450  = 0
 c90:  x452 + x455 - x463 + x475 - x480 - x488 + x489 + x495 + x500  = 0
 c91:  x4 + x24 - x27 + x29 - x37 + x40 - x42 - x48 - x49  = 0
 c92:  x54 + x74 - x77 + x79 - x87 + x90 - x92 - x98 - x99  = 0
 c93:  x104 + x124 - x127 + x129 - x137 + x140 - x142 - x148 - x149  = 0
 c94:  x154 + x174 - x177 + x179 - x187 + x190 - x192 - x198 - x199  = 0
 c95:  x204 + x224 - x227 + x229 - x237 + x240 - x242 - x248 - x249  = 1
 c96:  x254 + x274 - x277 + x279 - x287 + x290 - x292 - x298 - x299  = 0
 c97:  x304 + x324 - x327 + x329 - x337 + x340 - x342 - x348 - x349  = 0
 c98:  x354 + x374 - x377 + x379 - x387 + x390 - x392 - x398 - x399  = 0
 c99:  x404 + x424 - x427 + x429 - x437 + x440 - x442 - x448 - x449  = 0
 c100: x454 + x474 - x477 + x479 - x487 + x490 - x492 - x498 - x499  = 0
 c101: x3 - x7 - x26 - x29 + x48  = 0
 c102: x53 - x57 - x76 - x79 + x98  = 0
 c103: x103 - x107 - x126 - x129 + x148  = 0
 c104: x153 - x157 - x176 - x179 + x198  = 0
 c105: x203 - x207 - x226 - x229 + x248  = 0
 c106: x253 - x257 - x276 - x279 + x298  = 0
 c107: x303 - x307 - x326 - x329 + x348  = 0
 c108: x353 - x357 - x376 - x379 + x398  = 0
 c109: x403 - x407 - x426 - x429 + x448  = -1
 c110: x453 - x457 - x476 - x479 + x498  = 1
 c111: - x1 - x6 + x13 + x19 - x24 + x43 - x44  = 0
 c112: - x51 - x56 + x63 + x69 - x74 + x93 - x94  = -1
 c113: - x101 - x106 + x113 + x119 - x124 + x143 - x144  = 0
 c114: - x151 - x156 + x163 + x169 - x174 + x193 - x194  = 0
 c115: - x201 - x206 + x213 + x219 - x224 + x243 - x244  = 0
 c116: - x251 - x256 + x263 + x269 - x274 + x293 - x294  = 0
 c117: - x301 - x306 + x313 + x319 - x324 + x343 - x344  = -1
 c118: - x351 - x356 + x363 + x369 - x374 + x393 - x394  = 1
 c119: - x401 - x406 + x413 + x419 - x424 + x443 - x444  = 0
 c120: - x451 - x456 + x463 + x469 - x474 + x493 - x494  = 0
 c121: x7 - x10 - x11 - x14 + x34 + x42 - x46  = 0
 c122: x57 - x60 - x61 - x64 + x84 + x92 - x96  = 0
 c123: x107 - x110 - x111 - x114 + x134 + x142 - x146  = 0
 c124: x157 - x160 - x161 - x164 + x184 + x192 - x196  = 0
 c125: x207 - x210 - x211 - x214 + x234 + x242 - x246  = 0
 c126: x257 - x260 - x261 - x264 + x284 + x292 - x296  = 0
 c127: x307 - x310 - x311 - x314 + x334 + x342 - x346  = 0
 c128: x357 - x360 - x361 - x364 + x384 + x392 - x396  = 0
 c129: x407 - x410 - x411 - x414 + x434 + x442 - x446  = 0
 c130: x457 - x460 - x461 - x464 + x484 + x492 - x496  = 0
 c131: - x5 - x16 + x36  = 0
 c132: - x55 - x66 + x86  = 0
 c133: - x105 - x116 + x136  = -1
 c134: - x155 - x166 + x186  = 0
 c135: - x205 - x216 + x236  = 0
 c136: - x255 - x266 + x286  = 0
 c137: - x305 - x316 + x336  = 0
 c138: - x355 - x366 + x386  = 0
 c139: - x405 - x416 + x436  = 0
 c140: - x455 - x466 + x486  = 0
 c141: x9 + x20 + x27 + x46  = 0
 c142: x59 + x70 + x77 + x96  = 1
 c143: x109 + x120 + x127 + x146  = 0
 c144: x159 + x170 + x177 + x196  = 1
 c145: x209 + x220 + x227 + x246  = 0
 c146: x259 + x270 + x277 + x296  = 0
 c147: x309 + x320 + x327 + x346  = 0
 c148: x359 + x370 + x377 + x396  = 0
 c149: x409 + x420 + x427 + x446  = 0
 c150: x459 + x470 + x477 + x496  = 0
 c151: 4 x1 + 4 x51 + 4 x101 + 4 x151 + 4 x201 + 4 x251 + 4 x301 + 4 x351
       + 4 x401 + 4 x451 - 5 x501 <= 0
 c152: 4 x2 + 4 x52 + 4 x102 + 4 x152 + 4 x202 + 4 x252 + 4 x302 + 4 x352
       + 4 x402 + 4 x452 - 5 x502 <= 0
 c153: 4 x3 + 4 x53 + 4 x103 + 4 x153 + 4 x203 + 4 x253 + 4 x303 + 4 x353
       + 4 x403 + 4 x453 - 5 x503 <= 0
 c154: 4 x4 + 4 x54 + 4 x104 + 4 x154 + 4 x204 + 4 x254 + 4 x304 + 4 x354
       + 4 x404 + 4 x454 - 5 x504 <= 0
 c155: 4 x5 + 4 x55 + 4 x105 + 4 x155 + 4 x205 + 4 x255 + 4 x305 + 4 x355
       + 4 x405 + 4 x455 - 5 x505 <= 0
 c156: 4 x6 + 4 x56 + 4 x106 + 4 x156 + 4 x206 + 4 x256 + 4 x306 + 4 x356
       + 4 x406 + 4 x456 - 5 x506 <= 0
 c157: 4 x7 + 4 x57 + 4 x107 + 4 x157 + 4 x207 + 4 x257 + 4 x307 + 4 x357
       + 4 x407 + 4 x457 - 5 x507 <= 0
 c158: 4 x8 + 4 x58 + 4 x108 + 4 x158 + 4 x208 + 4 x258 + 4 x308 + 4 x358
       + 4 x408 + 4 x458 - 5 x508 <= 0
 c159: 4 x9 + 4 x59 + 4 x109 + 4 x159 + 4 x209 + 4 x259 + 4 x309 + 4 x359
       + 4 x409 + 4 x459 - 5 x509 <= 0
 c160: 4 x10 + 4 x60 + 4 x110 + 4 x160 + 4 x210 + 4 x260 + 4 x310 + 4 x360
       + 4 x410 + 4 x460 - 5 x510 <= 0
 c161: 4 x11 + 4 x61 + 4 x111 + 4 x161 + 4 x211 + 4 x261 + 4 x311 + 4 x361
       + 4 x411 + 4 x461 - 5 x511 <= 0
 c162: 4 x12 + 4 x62 + 4 x112 + 4 x162 + 4 x212 + 4 x262 + 4 x312 + 4 x362
       + 4 x412 + 4 x462 - 5 x512 <= 0
 c163: 4 x13 + 4 x63 + 4 x113 + 4 x163 + 4 x213 + 4 x263 + 4 x313 + 4 x363
       + 4 x413 + 4 x463 - 5 x513 <= 0
 c164: 4 x14 + 4 x64 + 4 x114 + 4 x164 + 4 x214 + 4 x264 + 4 x314 + 4 x364
       + 4 x414 + 4 x464 - 5 x514 <= 0
 c165: 4 x15 + 4 x65 + 4 x115 + 4 x165 + 4 x215 + 4 x265 + 4 x315 + 4 x365
       + 4 x415 + 4 x465 - 5 x515 <= 0
 c166: 4 x16 + 4 x66 + 4 x116 + 4 x166 + 4 x216 + 4 x266 + 4 x316 + 4 x366
       + 4 x416 + 4 x466 - 5 x516 <= 0
 c167: 4 x17 + 4 x67 + 4 x117 + 4 x167 + 4 x217 + 4 x267 + 4 x317 + 4 x367
       + 4 x417 + 4 x467 - 5 x517 <= 0
 c168: 4 x18 + 4 x68 + 4 x118 + 4 x168 + 4 x218 + 4 x268 + 4 x318 + 4 x368
       + 4 x418 + 4 x468 - 5 x518 <= 0
 c169: 4 x19 + 4 x69 + 4 x119 + 4 x169 + 4 x219 + 4 x269 + 4 x319 + 4 x369
       + 4 x419 + 4 x469 - 5 x519 <= 0
 c170: 4 x20 + 4 x70 + 4 x120 + 4 x170 + 4 x220 + 4 x270 + 4 x320 + 4 x370
       + 4 x420 + 4 x470 - 5 x520 <= 0
 c171: 4 x21 + 4 x71 + 4 x121 + 4 x171 + 4 x221 + 4 x271 + 4 x321 + 4 x371
       + 4 x421 + 4 x471 - 5 x521 <= 0
 c172: 4 x22 + 4 x72 + 4 x122 + 4 x172 + 4 x222 + 4 x272 + 4 x322 + 4 x372
       + 4 x422 + 4 x472 - 5 x522 <= 0
 c173: 4 x23 + 4 x73 + 4 x123 + 4 x173 + 4 x223 + 4 x273 + 4 x323 + 4 x373
       + 4 x423 + 4 x473 - 5 x523 <= 0
 c174: 4 x24 + 4 x74 + 4 x124 + 4 x174 + 4 x224 + 4 x274 + 4 x324 + 4 x374
       + 4 x424 + 4 x474 - 5 x524 <= 0
 c175: 4 x25 + 4 x75 + 4 x125 + 4 x175 + 4 x225 + 4 x275 + 4 x325 + 4 x375
       + 4 x425 + 4 x475 - 5 x525 <= 0
 c176: 4 x26 + 4 x76 + 4 x126 + 4 x176 + 4 x226 + 4 x276 + 4 x326 + 4 x376
       + 4 x426 + 4 x476 - 5 x526 <= 0
 c177: 4 x27 + 4 x77 + 4 x127 + 4 x177 + 4 x227 + 4 x277 + 4 x327 + 4 x377
       + 4 x427 + 4 x477 - 5 x527 <= 0
 c178: 4 x28 + 4 x78 + 4 x128 + 4 x178 + 4 x228 + 4 x278 + 4 x328 + 4 x378
       + 4 x428 + 4 x478 - 5 x528 <= 0
 c179: 4 x29 + 4 x79 + 4 x129 + 4 x179 + 4 x229 + 4 x279 + 4 x329 + 4 x379
       + 4 x429 + 4 x479 - 5 x529 <= 0
 c180: 4 x30 + 4 x80 + 4 x130 + 4 x180 + 4 x230 + 4 x280 + 4 x330 + 4 x380
       + 4 x430 + 4 x480 - 5 x530 <= 0
 c181: 4 x31 + 4 x81 + 4 x131 + 4 x181 + 4 x231 + 4 x281 + 4 x331 + 4 x381
       + 4 x431 + 4 x481 - 5 x531 <= 0
 c182: 4 x32 + 4 x82 + 4 x132 + 4 x182 + 4 x232 + 4 x282 + 4 x332 + 4 x382
       + 4 x432 + 4 x482 - 5 x532 <= 0
 c183: 4 x33 + 4 x83 + 4 x133 + 4 x183 + 4 x233 + 4 x283 + 4 x333 + 4 x383
       + 4 x433 + 4 x483 - 5 x533 <= 0
 c184: 4 x34 + 4 x84 + 4 x134 + 4 x184 + 4 x234 + 4 x284 + 4 x334 + 4 x384
       + 4 x434 + 4 x484 - 5 x534 <= 0
 c185: 4 x35 + 4 x85 + 4 x135 + 4 x185 + 4 x235 + 4 x285 + 4 x335 + 4 x385
       + 4 x435 + 4 x485 - 5 x535 <= 0
 c186: 4 x36 + 4 x86 + 4 x136 + 4 x186 + 4 x236 + 4 x286 + 4 x336 + 4 x386
       + 4 x436 + 4 x486 - 5 x536 <= 0
 c187: 4 x37 + 4 x87 + 4 x137 + 4 x187 + 4 x237 + 4 x287 + 4 x337 + 4 x387
       + 4 x437 + 4 x487 - 5 x537 <= 0
 c188: 4 x38 + 4 x88 + 4 x138 + 4 x188 + 4 x238 + 4 x288 + 4 x338 + 4 x388
       + 4 x438 + 4 x488 - 5 x538 <= 0
 c189: 4 x39 + 4 x89 + 4 x139 + 4 x189 + 4 x239 + 4 x289 + 4 x339 + 4 x389
       + 4 x439 + 4 x489 - 5 x539 <= 0
 c190: 4 x40 + 4 x90 + 4 x140 + 4 x190 + 4 x240 + 4 x290 + 4 x340 + 4 x390
       + 4 x440 + 4 x490 - 5 x540 <= 0
 c191: 4 x41 + 4 x91 + 4 x141 + 4 x191 + 4 x241 + 4 x291 + 4 x341 + 4 x391
       + 4 x441 + 4 x491 - 5 x541 <= 0
 c192: 4 x42 + 4 x92 + 4 x142 + 4 x192 + 4 x242 + 4 x292 + 4 x342 + 4 x392
       + 4 x442 + 4 x492 - 5 x542 <= 0
 c193: 4 x43 + 4 x93 + 4 x143 + 4 x193 + 4 x243 + 4 x293 + 4 x343 + 4 x393
       + 4 x443 + 4 x493 - 5 x543 <= 0
 c194: 4 x44 + 4 x94 + 4 x144 + 4 x194 + 4 x244 + 4 x294 + 4 x344 + 4 x394
       + 4 x444 + 4 x494 - 5 x544 <= 0
 c195: 4 x45 + 4 x95 + 4 x145 + 4 x195 + 4 x245 + 4 x295 + 4 x345 + 4 x395
       + 4 x445 + 4 x495 - 5 x545 <= 0
 c196: 4 x46 + 4 x96 + 4 x146 + 4 x196 + 4 x246 + 4 x296 + 4 x346 + 4 x396
       + 4 x446 + 4 x496 - 5 x546 <= 0
 c197: 4 x47 + 4 x97 + 4 x147 + 4 x197 + 4 x247 + 4 x297 + 4 x347 + 4 x397
       + 4 x447 + 4 x497 - 5 x547 <= 0
 c198: 4 x48 + 4 x98 + 4 x148 + 4 x198 + 4 x248 + 4 x298 + 4 x348 + 4 x398
       + 4 x448 + 4 x498 - 5 x548 <= 0
 c199: 4 x49 + 4 x99 + 4 x149 + 4 x199 + 4 x249 + 4 x299 + 4 x349 + 4 x399
       + 4 x449 + 4 x499 - 5 x549 <= 0
 c200: 4 x50 + 4 x100 + 4 x150 + 4 x200 + 4 x250 + 4 x300 + 4 x350 + 4 x400
       + 4 x450 + 4 x500 - 5 x550 <= 0
Bounds
 0 <= x1 <= 1
 0 <= x2 <= 1
 0 <= x3 <= 1
 0 <= x4 <= 1
 0 <= x5 <= 1
 0 <= x6 <= 1
 0 <= x7 <= 1
 0 <= x8 <= 1
 0 <= x9 <= 1
 0 <= x10 <= 1
 0 <= x11 <= 1
 0 <= x12 <= 1
 0 <= x13 <= 1
 0 <= x14 <= 1
 0 <= x15 <= 1
 0 <= x16 <= 1
 0 <= x17 <= 1
 0 <= x18 <= 1
 0 <= x19 <= 1
 0 <= x20 <= 1
 0 <= x21 <= 1
 0 <= x22 <= 1
 0 <= x23 <= 1
 0 <= x24 <= 1
 0 <= x25 <= 1
 0 <= x26 <= 1
 0 <= x27 <= 1
 0 <= x28 <= 1
 0 <= x29 <= 1
 0 <= x30 <= 1
 0 <= x31 <= 1
 0 <= x32 <= 1
 0 <= x33 <= 1
 0 <= x34 <= 1
 0 <= x35 <= 1
 0 <= x36 <= 1
 0 <= x37 <= 1
 0 <= x38 <= 1
 0 <= x39 <= 1
 0 <= x40 <= 1
 0 <= x41 <= 1
 0 <= x42 <= 1
 0 <= x43 <= 1
 0 <= x44 <= 1
 0 <= x45 <= 1
 0 <= x46 <= 1
 0 <= x47 <= 1
 0 <= x48 <= 1
 0 <= x49 <= 1
 0 <= x50 <= 1
 0 <= x51 <= 1
 0 <= x52 <= 1
 0 <= x53 <= 1
 0 <= x54 <= 1
 0 <= x55 <= 1
 0 <= x56 <= 1
 0 <= x57 <= 1
 0 <= x58 <= 1
 0 <= x59 <= 1
 0 <= x60 <= 1
 0 <= x61 <= 1
 0 <= x62 <= 1
 0 <= x63 <= 1
 0 <= x64 <= 1
 0 <= x65 <= 1
 0 <= x66 <= 1
 0 <= x67 <= 1
 0 <= x68 <= 1
 0 <= x69 <= 1
 0 <= x70 <= 1
 0 <= x71 <= 1
 0 <= x72 <= 1
 0 <= x73 <= 1
 0 <= x74 <= 1
 0 <= x75 <= 1
 0 <= x76 <= 1
 0 <= x77 <= 1
 0 <= x78 <= 1
 0 <= x79 <= 1
 0 <= x80 <= 1
 0 <= x81 <= 1
 0 <= x82 <= 1
 0 <= x83 <= 1
 0 <= x84 <= 1
 0 <= x85 <= 1
 0 <= x86 <= 1
 0 <= x87 <= 1
 0 <= x88 <= 1
 0 <= x89 <= 1
 0 <= x90 <= 1
 0 <= x91 <= 1
 0 <= x92 <= 1
 0 <= x93 <= 1
 0 <= x94 <= 1
 0 <= x95 <= 1
 0 <= x96 <= 1
 0 <= x97 <= 1
 0 <= x98 <= 1
 0 <= x99 <= 1
 0 <= x100 <= 1
 0 <= x101 <= 1
 0 <= x102 <= 1
 0 <= x103 <= 1
 0 <= x104 <= 1
 0 <= x105 <= 1
 0 <= x106 <= 1
 0 <= x107 <= 1
 0 <= x108 <= 1
 0 <= x109 <= 1
 0 <= x110 <= 1
 0 <= x111 <= 1
 0 <= x112 <= 1
 0 <= x113 <= 1
 0 <= x114 <= 1
 0 <= x115 <= 1
 0 <= x116 <= 1
 0 <= x117 <= 1
 0 <= x118 <= 1
 0 <= x119 <= 1
 0 <= x120 <= 1
 0 <= x121 <= 1
 0 <= x122 <= 1
 0 <= x123 <= 1
 0 <= x124 <= 1
 0 <= x125 <= 1
 0 <= x126 <= 1
 0 <= x127 <= 1
 0 <= x128 <= 1
 0 <= x129 <= 1
 0 <= x130 <= 1
 0 <= x131 <= 1
 0 <= x132 <= 1
 0 <= x133 <= 1
 0 <= x134 <= 1
 0 <= x135 <= 1
 0 <= x136 <= 1
 0 <= x137 <= 1
 0 <= x138 <= 1
 0 <= x139 <= 1
 0 <= x140 <= 1
 0 <= x141 <= 1
 0 <= x142 <= 1
 0 <= x143 <= 1
 0 <= x144 <= 1
 0 <= x145 <= 1
 0 <= x146 <= 1
 0 <= x147 <= 1
 0 <= x148 <= 1
 0 <= x149 <= 1
 0 <= x150 <= 1
 0 <= x151 <= 1
 0 <= x152 <= 1
 0 <= x153 <= 1
 0 <= x154 <= 1
 0 <= x155 <= 1
 0 <= x156 <= 1
 0 <= x157 <= 1
 0 <= x158 <= 1
 0 <= x159 <= 1
 0 <= x160 <= 1
 0 <= x161 <= 1
 0 <= x162 <= 1
 0 <= x163 <= 1
 0 <= x164 <= 1
 0 <= x165 <= 1
 0 <= x166 <= 1
 0 <= x167 <= 1
 0 <= x168 <= 1
 0 <= x169 <= 1
 0 <= x170 <= 1
 0 <= x171 <= 1
 0 <= x172 <= 1
 0 <= x173 <= 1
 0 <= x174 <= 1
 0 <= x175 <= 1
 0 <= x176 <= 1
 0 <= x177 <= 1
 0 <= x178 <= 1
 0 <= x179 <= 1
 0 <= x180 <= 1
 0 <= x181 <= 1
 0 <= x182 <= 1
 0 <= x183 <= 1
 0 <= x184 <= 1
 0 <= x185 <= 1
 0 <= x186 <= 1
 0 <= x187 <= 1
 0 <= x188 <= 1
 0 <= x189 <= 1
 0 <= x190 <= 1
 0 <= x191 <= 1
 0 <= x192 <= 1
 0 <= x193 <= 1
 0 <= x194 <= 1
 0 <= x195 <= 1
 0 <= x196 <= 1
 0 <= x197 <= 1
 0 <= x198 <= 1
 0 <= x199 <= 1
 0 <= x200 <= 1
 0 <= x201 <= 1
 0 <= x202 <= 1
 0 <= x203 <= 1
 0 <= x204 <= 1
 0 <= x205 <= 1
 0 <= x206 <= 1
 0 <= x207 <= 1
 0 <= x208 <= 1
 0 <= x209 <= 1
 0 <= x210 <= 1
 0 <= x211 <= 1
 0 <= x212 <= 1
 0 <= x213 <= 1
 0 <= x214 <= 1
 0 <= x215 <= 1
 0 <= x216 <= 1
 0 <= x217 <= 1
 0 <= x218 <= 1
 0 <= x219 <= 1
 0 <= x220 <= 1
 0 <= x221 <= 1
 0 <= x222 <= 1
 0 <= x223 <= 1
 0 <= x224 <= 1
 0 <= x225 <= 1
 0 <= x226 <= 1
 0 <= x227 <= 1
 0 <= x228 <= 1
 0 <= x229 <= 1
 0 <= x230 <= 1
 0 <= x231 <= 1
 0 <= x232 <= 1
 0 <= x233 <= 1
 0 <= x234 <= 1
 0 <= x235 <= 1
 0 <= x236 <= 1
 0 <= x237 <= 1
 0 <= x238 <= 1
 0 <= x239 <= 1
 0 <= x240 <= 1
 0 <= x241 <= 1
 0 <= x242 <= 1
 0 <= x243 <= 1
 0 <= x244 <= 1
 0 <= x245 <= 1
 0 <= x246 <= 1
 0 <= x247 <= 1
 0 <= x248 <= 1
 0 <= x249 <= 1
 0 <= x250 <= 1
 0 <= x251 <= 1
 0 <= x252 <= 1
 0 <= x253 <= 1
 0 <= x254 <= 1
 0 <= x255 <= 1
 0 <= x256 <= 1
 0 <= x257 <= 1
 0 <= x258 <= 1
 0 <= x259 <= 1
 0 <= x260 <= 1
 0 <= x261 <= 1
 0 <= x262 <= 1
 0 <= x263 <= 1
 0 <= x264 <= 1
 0 <= x265 <= 1
 0 <= x266 <= 1
 0 <= x267 <= 1
 0 <= x268 <= 1
 0 <= x269 <= 1
 0 <= x270 <= 1
 0 <= x271 <= 1
 0 <= x272 <= 1
 0 <= x273 <= 1
 0 <= x274 <= 1
 0 <= x275 <= 1
 0 <= x276 <= 1
 0 <= x277 <= 1
 0 <= x278 <= 1
 0 <= x279 <= 1
 0 <= x280 <= 1
 0 <= x281 <= 1
 0 <= x282 <= 1
 0 <= x283 <= 1
 0 <= x284 <= 1
 0 <= x285 <= 1
 0 <= x286 <= 1
 0 <= x287 <= 1
 0 <= x288 <= 1
 0 <= x289 <= 1
 0 <= x290 <= 1
 0 <= x291 <= 1
 0 <= x292 <= 1
 0 <= x293 <= 1
 0 <= x294 <= 1
 0 <= x295 <= 1
 0 <= x296 <= 1
 0 <= x297 <= 1
 0 <= x298 <= 1
 0 <= x299 <= 1
 0 <= x300 <= 1
 0 <= x301 <= 1
 0 <= x302 <= 1
 0 <= x303 <= 1
 0 <= x304 <= 1
 0 <= x305 <= 1
 0 <= x306 <= 1
 0 <= x307 <= 1
 0 <= x308 <= 1
 0 <= x309 <= 1
 0 <= x310 <= 1
 0 <= x311 <= 1
 0 <= x312 <= 1
 0 <= x313 <= 1
 0 <= x314 <= 1
 0 <= x315 <= 1
 0 <= x316 <= 1
 0 <= x317 <= 1
 0 <= x318 <= 1
 0 <= x319 <= 1
 0 <= x320 <= 1
 0 <= x321 <= 1
 0 <= x322 <= 1
 0 <= x323 <= 1
 0 <= x324 <= 1
 0 <= x325 <= 1
 0 <= x326 <= 1
 0 <= x327 <= 1
 0 <= x328 <= 1
 0 <= x329 <= 1
 0 <= x330 <= 1
 0 <= x331 <= 1
 0 <= x332 <= 1
 0 <= x333 <= 1
 0 <= x334 <= 1
 0 <= x335 <= 1
 0 <= x336 <= 1
 0 <= x337 <= 1
 0 <= x338 <= 1
 0 <= x339 <= 1
 0 <= x340 <= 1
 0 <= x341 <= 1
 0 <= x342 <= 1
 0 <= x343 <= 1
 0 <= x344 <= 1
 0 <= x345 <= 1
 0 <= x346 <= 1
 0 <= x347 <= 1
 0 <= x348 <= 1
 0 <= x349 <= 1
 0 <= x350 <= 1
 0 <= x351 <= 1
 0 <= x352 <= 1
 0 <= x353 <= 1
 0 <= x354 <= 1
 0 <= x355 <= 1
 0 <= x356 <= 1
 0 <= x357 <= 1
 0 <= x358 <= 1
 0 <= x359 <= 1
 0 <= x360 <= 1
 0 <= x361 <= 1
 0 <= x362 <= 1
 0 <= x363 <= 1
 0 <= x364 <= 1
 0 <= x365 <= 1
 0 <= x366 <= 1
 0 <= x367 <= 1
 0 <= x368 <= 1
 0 <= x369 <= 1
 0 <= x370 <= 1
 0 <= x371 <= 1
 0 <= x372 <= 1
 0 <= x373 <= 1
 0 <= x374 <= 1
 0 <= x375 <= 1
 0 <= x376 <= 1
 0 <= x377 <= 1
 0 <= x378 <= 1
 0 <= x379 <= 1
 0 <= x380 <= 1
 0 <= x381 <= 1
 0 <= x382 <= 1
 0 <= x383 <= 1
 0 <= x384 <= 1
 0 <= x385 <= 1
 0 <= x386 <= 1
 0 <= x387 <= 1
 0 <= x388 <= 1
 0 <= x389 <= 1
 0 <= x390 <= 1
 0 <= x391 <= 1
 0 <= x392 <= 1
 0 <= x393 <= 1
 0 <= x394 <= 1
 0 <= x395 <= 1
 0 <= x396 <= 1
 0 <= x397 <= 1
 0 <= x398 <= 1
 0 <= x399 <= 1
 0 <= x400 <= 1
 0 <= x401 <= 1
 0 <= x402 <= 1
 0 <= x403 <= 1
 0 <= x404 <= 1
 0 <= x405 <= 1
 0 <= x406 <= 1
 0 <= x407 <= 1
 0 <= x408 <= 1
 0 <= x409 <= 1
 0 <= x410 <= 1
 0 <= x411 <= 1
 0 <= x412 <= 1
 0 <= x413 <= 1
 0 <= x414 <= 1
 0 <= x415 <= 1
 0 <= x416 <= 1
 0 <= x417 <= 1
 0 <= x418 <= 1
 0 <= x419 <= 1
 0 <= x420 <= 1
 0 <= x421 <= 1
 0 <= x422 <= 1
 0 <= x423 <= 1
 0 <= x424 <= 1
 0 <= x425 <= 1
 0 <= x426 <= 1
 0 <= x427 <= 1
 0 <= x428 <= 1
 0 <= x429 <= 1
 0 <= x430 <= 1
 0 <= x431 <= 1
 0 <= x432 <= 1
 0 <= x433 <= 1
 0 <= x434 <= 1
 0 <= x435 <= 1
 0 <= x436 <= 1
 0 <= x437 <= 1
 0 <= x438 <= 1
 0 <= x439 <= 1
 0 <= x440 <= 1
 0 <= x441 <= 1
 0 <= x442 <= 1
 0 <= x443 <= 1
 0 <= x444 <= 1
 0 <= x445 <= 1
 0 <= x446 <= 1
 0 <= x447 <= 1
 0 <= x448 <= 1
 0 <= x449 <= 1
 0 <= x450 <= 1
 0 <= x451 <= 1
 0 <= x452 <= 1
 0 <= x453 <= 1
 0 <= x454 <= 1
 0 <= x455 <= 1
 0 <= x456 <= 1
 0 <= x457 <= 1
 0 <= x458 <= 1
 0 <= x459 <= 1
 0 <= x460 <= 1
 0 <= x461 <= 1
 0 <= x462 <= 1
 0 <= x463 <= 1
 0 <= x464 <= 1
 0 <= x465 <= 1
 0 <= x466 <= 1
 0 <= x467 <= 1
 0 <= x468 <= 1
 0 <= x469 <= 1
 0 <= x470 <= 1
 0 <= x471 <= 1
 0 <= x472 <= 1
 0 <= x473 <= 1
 0 <= x474 <= 1
 0 <= x475 <= 1
 0 <= x476 <= 1
 0 <= x477 <= 1
 0 <= x478 <= 1
 0 <= x479 <= 1
 0 <= x480 <= 1
 0 <= x481 <= 1
 0 <= x482 <= 1
 0 <= x483 <= 1
 0 <= x484 <= 1
 0 <= x485 <= 1
 0 <= x486 <= 1
 0 <= x487 <= 1
 0 <= x488 <= 1
 0 <= x489 <= 1
 0 <= x490 <= 1
 0 <= x491 <= 1
 0 <= x492 <= 1
 0 <= x493 <= 1
 0 <= x494 <= 1
 0 <= x495 <= 1
 0 <= x496 <= 1
 0 <= x497 <= 1
 0 <= x498 <= 1
 0 <= x499 <= 1
 0 <= x500 <= 1
 0 <= x501 <= 1
 0 <= x502 <= 1
 0 <= x503 <= 1
 0 <= x504 <= 1
 0 <= x505 <= 1
 0 <= x506 <= 1
 0 <= x507 <= 1
 0 <= x508 <= 1
 0 <= x509 <= 1
 0 <= x510 <= 1
 0 <= x511 <= 1
 0 <= x512 <= 1
 0 <= x513 <= 1
 0 <= x514 <= 1
 0 <= x515 <= 1
 0 <= x516 <= 1
 0 <= x517 <= 1
 0 <= x518 <= 1
 0 <= x519 <= 1
 0 <= x520 <= 1
 0 <= x521 <= 1
 0 <= x522 <= 1
 0 <= x523 <= 1
 0 <= x524 <= 1
 0 <= x525 <= 1
 0 <= x526 <= 1
 0 <= x527 <= 1
 0 <= x528 <= 1
 0 <= x529 <= 1
 0 <= x530 <= 1
 0 <= x531 <= 1
 0 <= x532 <= 1
 0 <= x533 <= 1
 0 <= x534 <= 1
 0 <= x535 <= 1
 0 <= x536 <= 1
 0 <= x537 <= 1
 0 <= x538 <= 1
 0 <= x539 <= 1
 0 <= x540 <= 1
 0 <= x541 <= 1
 0 <= x542 <= 1
 0 <= x543 <= 1
 0 <= x544 <= 1
 0 <= x545 <= 1
 0 <= x546 <= 1
 0 <= x547 <= 1
 0 <= x548 <= 1
 0 <= x549 <= 1
 0 <= x550 <= 1
Binaries
 x501  x502  x503  x504  x505  x506  x507  x508  x509  x510  x511  x512  x513 
 x514  x515  x516  x517  x518  x519  x520  x521  x522  x523  x524  x525  x526 
 x527  x528  x529  x530  x531  x532  x533  x534  x535  x536  x537  x538  x539 
 x540  x541  x542  x543  x544  x545  x546  x547  x548  x549  x550 
End
